\ This file has been generated by DOcplex
\ ENCODING=ISO-8859-1
\Problem name: broadcastChannel problem

Minimize
 obj: V
Subject To
 c1: V - 0.810000000000 a1_u1_x2 - 0.090000000000 a1_u1_x3 >= 0
 c2: V - 0.010000000000 a1_u0_x1 - 0.090000000000 a1_u0_x3 >= 0
 c3: a1_u0_x0 + a1_u1_x0 = 1
 c4: a1_u0_x1 + a1_u1_x1 = 1
 c5: a1_u0_x2 + a1_u1_x2 = 1
 c6: a1_u0_x3 + a1_u1_x3 = 1

Bounds
       V Free
End
